peakDumbCharging = 14800; 
Machine = anon_enum(16); 
machineSpeed = [3700,3700,3700,3700,3700,3700,3700,3700,3700,3700,3700,3700,3700,3700,3700,3700]; 
machineLoad = [3700,3700,3700,3700,3700,3700,3700,3700,3700,3700,3700,3700,3700,3700,3700,3700]; 
Car = anon_enum(17); 
demandCar = [20280,3520,1040,16281,3120,7440,22800,4920,5800,4960,2280,6720,14320,16360,9920,22000,23360]; 
arrivalCar = [78,76,76,74,73,70,69,68,68,65,53,50,49,48,47,34,32]; 
departureCar = [85,79,78,81,75,74,77,71,70,67,55,54,55,53,51,47,49]; 
